
Gurobi 11.0.3 (mac64[x86]) logging started Fri Mar 28 19:43:57 2025

Set parameter LogFile to value "Results/SanityCheck/first_try_v2.log"
Set parameter TimeLimit to value 12600
Gurobi Optimizer version 11.0.3 build v11.0.3rc0 (mac64[x86] - Darwin 23.4.0 23E214)

CPU model: Intel(R) Core(TM) i7-1060NG7 CPU @ 1.20GHz
Thread count: 4 physical cores, 8 logical processors, using up to 8 threads

Optimize a model with 1522944 rows, 1789536 columns and 6286704 nonzeros
Model fingerprint: 0xefc4ac3c
Coefficient statistics:
  Matrix range     [1e+00, 4e+00]
  Objective range  [6e-05, 5e+00]
  Bounds range     [0e+00, 0e+00]
  RHS range        [5e+00, 1e+03]
Presolve removed 1303317 rows and 1383893 columns (presolve time = 5s) ...
Presolve removed 1313029 rows and 1402165 columns
Presolve time: 5.54s
Presolved: 209915 rows, 387371 columns, 1253902 nonzeros

Concurrent LP optimizer: dual simplex and barrier
Showing barrier log only...

Ordering time: 0.16s

Barrier statistics:
 AA' NZ     : 5.066e+04
 Factor NZ  : 5.104e+05 (roughly 16 MB of memory)
 Factor Ops : 9.492e+07 (less than 1 second per iteration)
 Threads    : 3

                  Objective                Residual
Iter       Primal          Dual         Primal    Dual     Compl     Time
   0   1.32277030e+05  5.76435755e+06  5.92e+03 5.14e+00  7.98e+03     6s
   1  -1.09373546e+06  3.74092823e+06  1.45e+03 2.11e+00  1.64e+03     6s
   2  -9.25878954e+05  1.33755998e+06  3.35e+02 1.44e-01  3.67e+02     6s
   3  -1.97302642e+05  2.50413190e+05  4.46e+01 8.32e-03  5.36e+01     6s
   4  -4.57868815e+04  7.86859183e+04  9.39e+00 1.35e-03  1.28e+01     6s
   5  -5.85932155e+03  1.23366020e+04  9.85e-01 1.71e-13  1.57e+00     6s
   6  -5.68623916e+02  2.05183137e+03  7.76e-02 5.20e-14  1.96e-01     6s
   7  -6.08875939e+01  1.05838244e+03  3.18e-02 5.20e-14  8.32e-02     6s
   8   1.79598530e+02  6.80531952e+02  1.35e-02 6.57e-14  3.70e-02     6s
   9   3.17752033e+02  5.52107969e+02  3.98e-03 8.13e-14  1.65e-02     6s
  10   3.78333042e+02  4.68616860e+02  9.45e-04 6.79e-14  6.17e-03     6s
  11   4.03441536e+02  4.38176608e+02  2.67e-04 6.48e-14  2.34e-03     6s
  12   4.12260348e+02  4.31282067e+02  8.85e-05 8.17e-14  1.26e-03     6s
  13   4.15948753e+02  4.24542285e+02  3.86e-05 7.02e-14  5.70e-04     6s
  14   4.19254400e+02  4.19971325e+02  8.28e-07 1.07e-13  4.66e-05     6s
  15   4.19438171e+02  4.19674651e+02  1.36e-07 1.03e-13  1.53e-05     6s
  16   4.19481140e+02  4.19515684e+02  3.68e-08 2.47e-13  2.27e-06     6s
  17   4.19499572e+02  4.19500084e+02  6.19e-10 3.67e-13  3.37e-08     6s
  18   4.19499998e+02  4.19500000e+02  6.59e-11 2.60e-13  1.27e-10     6s

Barrier solved model in 18 iterations and 6.49 seconds (3.91 work units)
Optimal objective 4.19499998e+02


Solved with dual simplex
Extra simplex iterations after uncrush: 124
Iteration    Objective       Primal Inf.    Dual Inf.      Time
   13222    4.1950000e+02   0.000000e+00   0.000000e+00      7s

Use crossover to convert LP symmetric solution to basic solution...
Crossover log...

       0 DPushes remaining with DInf 0.0000000e+00                 7s

       0 PPushes remaining with PInf 0.0000000e+00                 7s

  Push phase complete: Pinf 0.0000000e+00, Dinf 6.0391692e-12      7s

Iteration    Objective       Primal Inf.    Dual Inf.      Time
   60251    4.1950000e+02   0.000000e+00   6.595828e+04     11s
   79000    4.1979165e+02   0.000000e+00   7.821829e+04     15s
   88356    4.1983030e+02   0.000000e+00   1.331199e+05     21s
   92793    4.1984025e+02   0.000000e+00   3.343582e+04     33s
   94999    4.1984359e+02   0.000000e+00   6.642236e+04     37s
   99548    4.1984815e+02   0.000000e+00   3.448666e+04     41s
  105091    4.1985217e+02   0.000000e+00   1.512385e+04     46s
  111589    4.1985535e+02   0.000000e+00   2.561360e+03     51s
  118496    4.1985724e+02   0.000000e+00   1.538767e+03     55s
  126197    4.1985808e+02   0.000000e+00   1.131405e+02     61s
  128591    4.1985812e+02   0.000000e+00   1.501875e-01     66s
Extra simplex iterations after uncrush: 110140
  128612    4.1950000e+02   0.000000e+00   0.000000e+00     67s

Solved in 128612 iterations and 67.01 seconds (40.61 work units)
Optimal objective  4.195000000e+02
